NAME : ct_3_n_2_k10_t_95
COMMENT : (ct_3_n_2_k10_t_95, Min no of trucks: 2, Optimal value: 327.4588614917948, Split: Yes)
TYPE : SDVRP
DIMENSION : 4
EDGE_WEIGHT_TYPE : EUC_2D
CAPACITY : 10
NODE_COORD_SECTION
1 100 100
2 110 34
3 124 105
4 76 161
DEMAND_SECTION
1 0
2 6.3
3 7.9
4 4.8
DEPOT_SECTION
 1
EOF